702 5
10 10 10 10 10 

0 0 0 0 0 0 5 2 54 106 158 170 
0 0 0 0 0 0 4 3 4 5 7 
9 10 4 2 5 6 5 13 12 11 8 6 
7 8 10 5 5 8 3 11 8 6 
5 8 9 10 10 8 2 12 6 
10 2 3 6 7 7 3 18 15 9 
4 4 5 9 10 6 3 18 15 9 
2 7 5 10 8 5 2 9 688 
6 8 3 5 5 9 1 10 
7 5 7 7 4 7 4 22 20 19 14 
3 9 6 9 7 10 3 20 18 14 
2 8 6 7 6 4 3 19 18 16 
8 10 5 10 4 8 3 20 18 16 
9 9 8 3 8 10 1 16 
6 9 7 10 7 3 1 16 
10 10 10 9 10 9 1 17 
1 10 5 10 8 8 4 29 27 23 21 
9 5 8 7 7 4 3 27 22 21 
1 8 10 10 10 10 3 27 23 21 
4 6 6 6 5 6 4 29 25 24 23 
5 7 10 3 10 7 2 25 24 
5 10 7 6 10 9 1 23 
5 10 8 7 3 8 1 26 
9 6 7 9 7 10 1 26 
4 7 8 8 7 7 1 26 
9 6 10 10 5 10 1 28 
9 10 7 7 10 3 1 28 
4 10 9 10 10 6 1 30 
8 8 7 10 6 9 1 30 
1 8 7 7 10 10 3 35 33 31 
10 9 9 10 5 10 1 32 
8 7 9 5 7 7 2 38 34 
4 4 4 10 9 5 1 34 
6 5 10 10 4 10 3 41 37 36 
1 5 6 9 8 10 2 41 36 
6 10 7 7 9 9 2 43 39 
9 7 10 9 10 10 2 43 39 
6 5 8 6 10 10 2 41 40 
4 10 6 10 7 5 1 40 
2 6 7 7 9 6 1 42 
5 6 10 5 2 10 1 42 
7 10 10 5 10 6 1 44 
10 10 10 3 6 4 1 44 
10 8 4 6 8 5 1 45 
10 4 10 10 6 6 2 48 46 
2 7 6 10 9 4 2 49 47 
3 10 10 10 10 8 2 52 50 
10 5 10 8 9 6 2 52 50 
4 5 7 6 8 9 2 52 51 
1 9 8 7 10 9 1 51 
3 10 10 3 10 10 1 53 
3 5 7 7 5 9 1 53 
0 0 0 0 0 0 1 702 
0 0 0 0 0 0 4 55 56 57 59 
5 10 4 2 4 4 5 68 65 64 63 60 
10 4 3 8 8 8 2 63 58 
2 5 7 6 8 9 1 58 
7 7 7 6 6 10 3 70 68 61 
2 10 5 5 8 10 3 70 68 61 
7 8 8 7 5 7 1 61 
10 6 8 4 8 10 2 62 536 
5 10 8 6 10 9 4 74 73 71 66 
10 9 8 6 10 6 4 73 71 70 66 
7 10 3 9 9 10 3 73 70 69 
7 6 9 10 5 9 2 73 67 
10 10 7 5 10 9 1 67 
9 8 10 5 8 6 1 69 
5 6 10 8 4 7 1 69 
2 5 9 9 9 6 4 81 79 76 72 
1 7 8 10 4 6 3 79 76 72 
8 6 10 8 7 10 3 81 76 75 
1 10 7 8 5 6 2 77 75 
6 6 8 7 9 9 1 76 
3 6 6 8 8 10 1 75 
9 4 4 6 9 8 1 78 
9 10 7 5 5 10 1 78 
9 8 9 8 3 6 1 78 
1 7 6 10 10 6 1 80 
7 8 6 6 5 6 1 80 
3 8 10 10 10 5 1 82 
2 3 10 6 9 9 1 82 
7 10 2 4 7 5 3 87 85 83 
4 6 4 9 8 10 1 84 
9 10 10 9 5 6 3 91 89 86 
9 9 7 10 10 9 2 89 86 
2 9 10 7 7 10 2 93 88 
3 10 10 9 7 6 2 93 89 
2 10 10 9 6 7 2 95 90 
2 4 4 9 9 7 1 90 
10 10 6 10 6 6 1 92 
2 8 9 9 10 5 1 93 
4 4 7 8 10 8 1 94 
9 5 4 5 9 2 1 94 
8 10 9 10 10 9 1 96 
8 6 10 5 8 10 1 96 
5 6 10 10 9 5 1 97 
1 7 5 9 5 8 2 100 98 
10 10 8 8 6 6 2 101 99 
8 10 10 7 4 8 2 104 102 
7 7 9 8 9 6 2 104 102 
10 7 8 10 7 5 2 104 103 
9 7 9 4 8 10 1 103 
5 6 8 10 10 7 1 105 
3 7 9 8 9 9 1 105 
0 0 0 0 0 0 1 702 
0 0 0 0 0 0 4 107 108 109 111 
3 5 5 3 2 3 5 118 117 113 112 110 
6 10 7 2 6 8 4 118 113 112 110 
6 5 10 10 3 6 2 117 110 
2 9 3 5 10 5 3 120 116 114 
8 9 10 10 8 5 3 120 116 114 
9 6 3 10 8 7 2 120 115 
8 6 10 4 8 9 1 114 
3 7 7 7 8 6 1 115 
10 2 7 6 8 7 4 126 124 123 119 
8 5 10 10 7 9 4 126 124 123 121 
3 8 5 8 10 9 3 124 121 120 
7 9 9 10 5 10 3 123 121 120 
10 10 10 10 10 8 1 121 
6 7 3 9 7 4 4 133 131 126 125 
7 10 10 7 9 8 1 122 
10 9 4 8 10 6 4 133 131 128 125 
4 6 6 5 8 10 4 133 128 125 698 
10 10 10 6 6 10 3 131 128 125 
8 7 9 8 6 7 2 129 127 
8 8 4 10 6 9 2 128 127 
7 5 10 5 8 8 1 130 
1 6 8 10 5 6 1 130 
1 10 10 5 3 9 1 130 
7 5 8 4 5 9 1 132 
5 5 10 8 9 6 1 132 
9 7 4 10 6 10 1 134 
7 8 10 8 6 6 1 134 
2 8 2 9 9 6 3 139 137 135 
3 7 10 8 6 7 1 136 
1 10 9 6 10 5 2 142 138 
9 9 8 10 10 10 1 138 
9 9 9 6 6 10 3 144 141 140 
4 7 6 8 8 10 2 144 140 
3 9 6 7 10 6 2 147 143 
5 9 4 7 8 10 2 147 143 
8 4 8 7 9 9 1 144 
10 10 10 5 8 6 1 145 
7 4 9 10 8 10 1 145 
10 10 5 7 8 8 1 146 
5 5 8 3 8 7 1 148 
4 10 8 9 9 5 1 148 
7 9 8 10 5 9 1 149 
10 8 9 5 7 10 2 152 150 
7 7 4 8 7 6 2 153 151 
6 5 4 10 10 4 2 156 154 
4 10 10 9 9 7 2 156 154 
10 5 9 7 6 10 2 156 155 
5 10 10 7 7 5 1 155 
7 8 7 9 10 8 1 157 
2 8 10 10 10 7 1 157 
0 0 0 0 0 0 1 702 
0 0 0 0 0 0 4 159 161 162 609 
8 0 0 5 0 0 2 168 160 
7 0 0 3 0 0 2 164 163 
3 0 0 7 0 0 2 168 163 
8 0 0 6 0 0 2 167 164 
6 0 0 10 0 0 2 167 166 
6 0 0 10 0 0 1 165 
9 0 0 9 0 0 1 166 
4 0 0 10 0 0 1 169 
2 0 0 10 0 0 1 169 
6 0 0 5 0 0 1 169 
0 0 0 0 0 0 5 222 234 276 318 360 
0 0 0 0 0 0 5 171 172 173 175 181 
6 5 2 4 4 5 4 186 184 180 176 
1 7 4 7 10 10 4 186 184 179 177 
7 4 10 7 9 10 2 177 174 
4 10 7 3 6 8 3 186 184 178 
8 7 4 5 10 7 2 186 177 
10 5 8 8 8 7 1 177 
3 4 10 4 7 5 1 178 
6 8 10 10 5 6 4 190 189 188 182 
7 4 10 7 8 6 3 190 189 183 
1 10 10 9 10 10 2 189 183 
9 9 8 5 8 9 2 186 185 
1 8 7 5 10 8 1 183 
5 10 8 6 5 8 1 185 
2 8 8 9 10 7 1 185 
7 7 10 10 10 4 4 197 196 191 187 
2 5 9 7 10 9 2 191 187 
1 8 5 10 5 9 2 194 192 
1 7 8 10 7 10 2 194 193 
8 8 6 9 7 6 1 191 
10 9 5 7 7 5 1 191 
4 6 6 8 7 8 1 193 
7 5 10 10 7 10 1 193 
9 6 9 3 7 10 1 195 
1 6 10 10 6 5 1 195 
1 10 6 10 6 10 2 203 198 
4 10 6 6 6 6 3 203 201 199 
8 7 8 10 5 6 1 198 
4 8 10 10 8 7 2 201 199 
6 10 4 7 6 8 1 200 
5 6 8 7 9 7 3 207 204 202 
3 10 8 10 10 9 3 209 204 202 
4 3 6 10 7 5 2 211 205 
2 10 5 8 8 5 2 209 204 
4 10 10 5 8 6 1 206 
1 8 6 6 7 10 1 206 
1 6 7 7 4 8 1 208 
5 7 8 5 7 5 1 209 
9 8 10 10 10 4 1 210 
5 10 4 10 5 9 1 210 
1 5 2 8 10 7 1 212 
5 6 9 5 10 10 1 212 
6 8 6 5 7 10 1 213 
3 3 10 10 7 6 2 216 214 
1 10 10 8 9 8 2 218 215 
10 10 10 6 7 9 2 220 217 
3 10 7 10 7 5 2 217 692 
8 10 8 10 5 8 1 219 
7 10 8 6 9 9 1 219 
6 8 8 8 10 8 1 221 
9 6 7 5 5 8 1 221 
0 0 0 0 0 0 1 702 
0 0 0 0 0 0 4 223 227 229 230 
6 0 0 0 4 0 2 226 224 
2 0 0 0 4 0 1 225 
4 0 0 0 8 0 2 232 228 
9 0 0 0 5 0 2 232 231 
5 0 0 0 10 0 1 228 
10 0 0 0 10 0 1 231 
7 0 0 0 10 0 1 232 
3 0 0 0 6 0 1 231 
5 0 0 0 10 0 2 233 669 
8 0 0 0 8 0 1 233 
0 0 0 0 0 0 5 402 434 466 498 530 
0 0 0 0 0 0 2 235 239 
6 1 0 4 5 4 1 236 
8 5 0 3 7 7 2 238 237 
8 10 0 10 10 9 3 245 243 240 
2 10 0 9 7 10 4 256 243 241 381 
9 8 0 5 2 3 2 243 241 
7 10 0 8 7 8 1 241 
6 6 0 6 10 5 3 248 247 242 
10 7 0 10 7 10 2 257 244 
2 9 0 6 7 9 2 257 247 
8 8 0 5 10 7 1 246 
4 6 0 10 6 9 1 246 
7 7 0 9 6 9 3 258 255 249 
3 5 0 7 7 10 3 258 255 249 
2 7 0 10 7 10 5 262 258 255 252 251 
7 7 0 4 6 6 3 262 252 250 
9 6 0 6 9 7 1 251 
2 10 0 8 10 6 3 274 263 253 
1 10 0 6 6 10 2 263 253 
2 8 0 9 10 6 2 269 254 
5 10 0 7 5 5 4 273 266 265 259 
7 10 0 5 7 6 3 274 273 259 
4 10 0 6 7 6 3 273 264 258 
1 8 0 7 8 7 2 264 258 
1 5 0 10 5 10 3 272 267 263 
9 5 0 10 6 4 1 260 
4 4 0 10 10 7 1 261 
5 6 0 7 4 9 2 271 264 
1 7 0 6 4 9 2 271 264 
7 7 0 5 7 7 2 266 265 
6 10 0 8 10 7 2 272 267 
1 9 0 6 8 10 2 271 268 
8 5 0 9 10 7 2 271 268 
8 4 0 10 5 8 1 268 
6 10 0 10 10 8 1 270 
2 10 0 8 10 5 1 271 
10 10 0 7 10 5 1 275 
7 3 0 8 5 10 1 275 
4 7 0 10 10 10 1 275 
5 10 0 10 10 7 1 275 
8 10 0 6 10 8 1 275 
0 0 0 0 0 0 1 702 
0 0 0 0 0 0 2 277 278 
2 1 4 1 2 0 1 279 
10 7 8 4 9 0 1 279 
5 5 6 2 5 0 2 281 280 
9 7 5 6 5 0 4 289 285 284 282 
1 9 3 10 10 0 4 289 285 284 283 
4 7 10 7 8 0 1 283 
8 6 5 10 4 0 3 288 287 286 
1 10 9 5 9 0 2 287 286 
8 3 9 3 10 0 2 287 286 
8 7 10 9 6 0 2 293 290 
8 6 7 7 10 0 2 293 290 
6 10 10 7 8 0 2 293 290 
9 6 7 6 8 0 2 293 292 
1 6 6 9 10 0 1 291 
5 8 8 8 5 0 1 292 
2 8 7 6 8 0 2 295 294 
7 7 2 10 4 0 1 294 
2 10 6 9 9 0 3 298 297 296 
2 6 3 6 10 0 3 299 298 297 
3 7 4 10 6 0 4 303 301 299 560 
9 8 7 6 6 0 3 303 302 300 
7 8 8 9 10 0 2 301 300 
5 6 8 9 10 0 1 300 
3 7 10 10 3 0 2 306 304 
7 10 10 10 9 0 1 302 
2 7 10 10 5 0 2 307 305 
10 9 9 7 10 0 2 308 306 
3 10 10 9 9 0 1 305 
1 6 7 9 6 0 2 310 308 
2 10 6 8 5 0 1 307 
4 8 4 10 9 0 3 311 310 309 
4 8 9 10 10 0 2 311 309 
7 10 9 7 9 0 2 314 312 
2 7 10 6 6 0 2 314 312 
4 10 7 10 6 0 3 316 314 313 
10 8 10 10 7 0 2 316 313 
10 6 10 6 10 0 1 315 
7 10 9 5 8 0 1 315 
2 7 9 7 10 0 1 317 
6 9 9 7 6 0 1 317 
0 0 0 0 0 0 1 702 
0 0 0 0 0 0 2 319 321 
5 4 0 4 4 4 1 320 
1 6 0 8 5 6 2 323 322 
10 7 0 9 5 9 3 324 322 659 
6 6 0 7 10 10 4 334 327 326 325 
7 7 0 10 8 8 3 327 326 324 
5 7 0 5 6 6 1 325 
3 7 0 10 10 10 3 331 329 328 
4 5 0 8 8 10 3 335 331 330 
5 9 0 10 7 8 3 335 331 330 
3 4 0 7 5 9 2 335 330 
3 7 0 10 7 8 2 335 332 
5 7 0 9 6 9 1 332 
9 10 0 10 8 3 1 332 
8 9 0 5 8 10 1 333 
10 10 0 5 6 6 4 341 339 338 336 
6 5 0 10 6 8 2 337 335 
9 7 0 7 9 5 3 343 341 340 
5 10 0 8 4 7 1 337 
7 10 0 5 10 7 3 344 343 340 
3 7 0 4 6 6 3 349 344 340 
4 6 0 8 5 8 3 349 348 345 
2 6 0 8 4 10 1 342 
2 6 0 10 9 8 3 348 346 344 
8 10 0 7 8 8 2 348 345 
6 10 0 10 6 9 3 350 349 347 
6 9 0 4 10 9 2 350 347 
1 8 0 4 10 10 1 346 
3 8 0 7 10 6 2 351 347 
8 4 0 8 8 9 2 353 352 
5 5 0 4 10 5 1 350 
7 10 0 7 10 5 2 358 352 
7 10 0 6 7 6 1 351 
4 10 0 9 10 8 3 358 357 354 
5 7 0 10 5 7 2 357 354 
8 8 0 6 10 6 3 358 357 356 
8 8 0 8 8 6 1 355 
6 7 0 10 8 10 1 356 
5 9 0 9 7 6 1 359 
5 6 0 8 9 10 1 359 
7 9 0 6 8 5 1 359 
0 0 0 0 0 0 1 702 
0 0 0 0 0 0 2 361 362 
6 7 2 0 2 2 1 363 
9 3 4 0 8 10 1 363 
8 8 10 0 10 6 2 365 364 
4 6 9 0 10 8 4 373 369 368 366 
3 6 8 0 10 6 4 373 369 368 367 
5 10 7 0 5 6 1 367 
3 4 8 0 8 5 3 372 371 370 
6 10 7 0 5 5 3 372 371 370 
5 10 7 0 5 4 3 372 371 370 
1 7 7 0 7 5 2 377 374 
5 10 7 0 10 10 2 377 374 
5 8 5 0 8 4 2 377 374 
4 5 5 0 7 8 2 377 375 
9 6 8 0 3 10 1 375 
1 3 8 0 6 6 1 376 
10 5 5 0 9 10 2 379 378 
2 9 10 0 5 5 1 378 
6 10 10 0 6 7 3 382 381 380 
1 7 10 0 8 9 2 382 381 
1 6 7 0 4 10 3 388 385 383 
10 10 8 0 8 7 2 385 383 
2 9 10 0 9 8 3 388 387 384 
10 7 8 0 10 8 1 384 
8 4 8 0 8 10 2 390 386 
8 10 5 0 10 6 1 387 
2 5 4 0 10 10 2 391 389 
4 10 6 0 5 9 2 391 389 
1 10 8 0 6 9 2 392 390 
10 6 10 0 10 9 2 392 694 
9 10 7 0 7 8 1 391 
4 10 10 0 5 9 3 395 394 393 
3 7 8 0 8 10 3 395 394 393 
1 7 5 0 10 8 2 397 396 
3 10 6 0 10 8 2 397 396 
1 6 7 0 6 9 2 397 396 
10 5 9 0 9 7 2 400 398 
1 10 10 0 7 10 2 400 399 
5 10 8 0 10 9 1 399 
9 10 10 0 6 4 1 401 
9 4 9 0 10 6 1 401 
0 0 0 0 0 0 1 702 
0 0 0 0 0 0 3 403 404 432 
6 6 4 3 0 0 2 431 405 
1 9 9 6 0 0 3 431 413 406 
1 4 7 8 0 0 2 413 406 
10 3 7 8 0 0 1 407 
6 7 7 7 0 0 3 430 429 408 
7 3 10 6 0 0 1 409 
5 8 5 8 0 0 2 428 410 
1 10 9 10 0 0 2 427 411 
1 10 10 10 0 0 3 426 412 629 
5 10 8 9 0 0 1 414 
6 8 7 10 0 0 3 425 418 416 
4 10 3 9 0 0 2 425 415 
3 9 8 10 0 0 1 416 
4 8 9 7 0 0 3 423 419 417 
8 8 10 4 0 0 3 424 422 420 
6 7 7 7 0 0 3 423 421 419 
3 10 7 7 0 0 1 422 
8 5 10 6 0 0 1 421 
3 10 7 10 0 0 1 433 
6 10 10 10 0 0 1 433 
3 9 10 10 0 0 1 433 
10 6 6 9 0 0 1 433 
8 9 6 5 0 0 1 433 
8 4 10 8 0 0 1 433 
4 10 8 5 0 0 1 433 
2 8 7 8 0 0 1 433 
1 6 8 10 0 0 1 433 
1 5 3 5 0 0 1 433 
2 6 6 5 0 0 1 433 
5 7 7 5 0 0 1 433 
0 0 0 0 0 0 1 702 
0 0 0 0 0 0 3 435 436 445 
10 4 0 4 5 0 2 453 437 
10 8 0 6 9 0 2 453 437 
5 8 0 5 9 0 2 441 438 
7 7 0 3 7 0 2 444 439 
8 6 0 10 5 0 2 455 440 
5 9 0 3 1 0 2 451 442 
9 10 0 10 8 0 2 444 443 
3 5 0 10 10 0 1 443 
3 7 0 8 7 0 3 459 450 446 
5 10 0 10 7 0 2 459 446 
8 9 0 6 9 0 4 456 455 450 449 
1 8 0 10 7 0 2 456 447 
7 10 0 10 10 0 1 448 
8 6 0 7 7 0 1 449 
8 4 0 10 5 0 2 464 452 
9 9 0 5 8 0 2 464 452 
10 6 0 4 8 0 2 464 452 
3 5 0 7 10 0 3 463 458 454 
5 7 0 8 9 0 2 463 454 
2 8 0 7 10 0 3 462 461 457 
1 8 0 10 8 0 2 461 460 
1 10 0 10 7 0 1 457 
2 7 0 10 5 0 1 460 
3 7 0 6 9 0 1 461 
6 4 0 7 6 0 1 464 
5 6 0 7 8 0 1 465 
8 9 0 10 10 0 1 465 
3 10 0 10 8 0 1 465 
8 8 0 7 3 0 2 465 583 
10 10 0 5 10 0 1 465 
0 0 0 0 0 0 1 702 
0 0 0 0 0 0 3 467 468 483 
3 5 5 1 0 0 2 486 469 
6 8 5 9 0 0 2 486 469 
5 9 10 5 0 0 2 473 470 
1 4 10 3 0 0 2 476 471 
5 7 6 7 0 0 2 491 472 
9 5 10 10 0 0 2 484 474 
2 10 8 6 0 0 2 476 475 
7 3 7 8 0 0 1 475 
6 6 10 5 0 0 3 490 480 477 
3 6 6 9 0 0 3 490 487 478 
9 9 1 7 0 0 2 487 478 
10 10 10 6 0 0 1 479 
6 10 3 10 0 0 2 496 481 
10 10 9 10 0 0 2 496 482 
3 9 5 9 0 0 1 482 
10 8 3 9 0 0 3 495 489 485 
1 8 8 10 0 0 3 496 489 485 
9 8 10 6 0 0 2 495 485 
3 3 10 6 0 0 3 494 492 488 
10 8 10 10 0 0 2 493 492 
10 10 7 8 0 0 1 488 
7 10 10 10 0 0 1 493 
2 10 7 7 0 0 1 492 
4 8 6 5 0 0 1 496 
4 6 10 9 0 0 1 492 
4 10 10 10 0 0 1 497 
9 5 6 7 0 0 1 497 
10 10 10 8 0 0 2 497 591 
3 6 9 9 0 0 1 497 
1 4 4 6 0 0 1 497 
0 0 0 0 0 0 1 702 
0 0 0 0 0 0 3 499 500 502 
9 5 5 0 2 0 2 507 501 
4 9 7 0 7 0 2 507 501 
9 6 8 0 5 0 2 505 503 
1 9 7 0 7 0 3 507 506 505 
1 5 3 0 10 0 1 504 
4 2 9 0 7 0 2 508 506 
8 4 6 0 5 0 2 510 508 
7 7 6 0 8 0 3 515 510 509 
7 9 10 0 4 0 1 508 
3 8 10 0 10 0 2 515 509 
1 6 8 0 9 0 1 511 
2 10 10 0 4 0 1 511 
10 5 9 0 7 0 2 516 512 
5 7 10 0 7 0 2 514 513 
5 7 7 0 7 0 2 520 517 
5 10 5 0 10 0 2 520 517 
4 7 9 0 10 0 1 516 
6 9 5 0 9 0 1 517 
7 7 3 0 9 0 1 518 
2 7 8 0 4 0 1 519 
3 7 10 0 6 0 2 523 521 
6 10 8 0 9 0 1 521 
4 7 10 0 10 0 5 528 527 526 524 522 
8 7 10 0 6 0 2 525 553 
3 8 7 0 6 0 1 524 
3 10 6 0 9 0 1 529 
6 10 5 0 10 0 1 529 
7 10 6 0 9 0 1 529 
5 7 10 0 9 0 1 529 
2 10 8 0 10 0 1 529 
0 0 0 0 0 0 1 702 
0 0 0 0 0 0 2 531 532 
5 0 0 10 0 0 2 536 533 
3 0 0 3 0 0 1 533 
3 0 0 10 0 0 2 535 534 
6 0 0 8 0 0 3 540 538 537 
4 0 0 4 0 0 2 540 538 
6 0 0 10 0 0 3 540 537 671 
7 0 0 10 0 0 1 539 
3 0 0 10 0 0 1 539 
6 0 0 6 0 0 1 541 
7 0 0 4 0 0 1 541 
0 0 0 0 0 0 5 542 564 586 608 620 
0 0 0 0 0 0 2 543 544 
5 0 3 0 2 0 2 547 546 
7 0 6 0 8 0 2 549 545 
1 0 5 0 5 0 2 555 546 
3 0 4 0 9 0 3 554 552 548 
9 0 10 0 6 0 3 552 550 549 
2 0 10 0 8 0 1 550 
4 0 6 0 7 0 3 556 555 553 
3 0 5 0 10 0 1 551 
8 0 9 0 4 0 2 556 553 
2 0 10 0 10 0 2 556 553 
6 0 8 0 10 0 3 559 558 557 
1 0 7 0 10 0 2 562 557 
5 0 10 0 6 0 1 557 
10 0 10 0 10 0 2 562 561 
4 0 9 0 9 0 1 560 
1 0 8 0 10 0 2 560 697 
1 0 5 0 8 0 1 560 
2 0 8 0 3 0 1 561 
3 0 8 0 10 0 1 563 
6 0 9 0 5 0 1 563 
0 0 0 0 0 0 1 702 
0 0 0 0 0 0 1 565 
2 5 5 0 0 0 2 584 566 
4 7 6 0 0 0 2 583 567 
9 6 8 0 0 0 4 582 581 568 648 
5 6 7 0 0 0 2 580 569 
1 6 10 0 0 0 3 579 578 570 
1 8 5 0 0 0 3 577 576 571 
1 9 5 0 0 0 2 575 572 
10 9 4 0 0 0 1 573 
8 10 10 0 0 0 1 574 
4 10 8 0 0 0 1 585 
9 7 9 0 0 0 1 585 
5 5 10 0 0 0 1 585 
5 8 7 0 0 0 1 585 
9 10 6 0 0 0 1 585 
7 7 10 0 0 0 1 585 
9 9 7 0 0 0 1 585 
1 10 6 0 0 0 1 585 
5 3 9 0 0 0 1 585 
2 10 10 0 0 0 1 585 
6 5 8 0 0 0 1 585 
0 0 0 0 0 0 1 702 
0 0 0 0 0 0 7 587 590 602 603 604 605 606 
3 0 0 2 4 0 3 601 599 588 
8 0 0 2 7 0 2 600 589 
10 0 0 10 7 0 2 598 591 
10 0 0 9 10 0 2 599 591 
3 0 0 8 6 0 1 592 
9 0 0 8 7 0 1 593 
5 0 0 7 9 0 1 594 
8 0 0 8 10 0 1 595 
1 0 0 7 3 0 1 596 
5 0 0 6 9 0 2 597 646 
8 0 0 8 9 0 1 607 
10 0 0 8 6 0 1 607 
2 0 0 10 8 0 1 607 
7 0 0 6 5 0 1 607 
9 0 0 10 7 0 1 607 
9 0 0 10 9 0 1 607 
5 0 0 6 10 0 1 607 
6 0 0 10 10 0 1 607 
10 0 0 7 4 0 1 607 
8 0 0 8 10 0 1 607 
0 0 0 0 0 0 1 702 
0 0 0 0 0 0 3 609 610 611 
7 0 2 0 0 0 3 618 613 612 
4 0 5 0 0 0 3 618 614 613 
6 0 8 0 0 0 3 618 617 616 
6 0 8 0 0 0 2 614 676 
9 0 5 0 0 0 2 617 616 
4 0 10 0 0 0 1 615 
10 0 8 0 0 0 1 616 
7 0 9 0 0 0 1 619 
4 0 10 0 0 0 1 619 
7 0 10 0 0 0 1 619 
0 0 0 0 0 0 5 642 654 666 678 690 
0 0 0 0 0 0 1 621 
8 4 0 0 0 5 2 624 622 
8 8 0 0 0 7 1 623 
10 6 0 0 0 6 2 625 661 
3 6 0 0 0 3 1 625 
3 6 0 0 0 10 2 627 626 
2 5 0 0 0 10 3 636 633 628 
6 10 0 0 0 10 4 633 632 631 630 
3 8 0 0 0 10 2 632 629 
5 7 0 0 0 7 3 634 631 630 
7 3 0 0 0 10 4 640 639 638 635 
9 10 0 0 0 9 4 640 639 638 637 
6 9 0 0 0 10 3 640 638 634 
8 10 0 0 0 4 2 638 637 
10 7 0 0 0 5 1 637 
7 8 0 0 0 4 1 637 
9 10 0 0 0 8 1 639 
5 6 0 0 0 10 1 641 
9 10 0 0 0 10 1 641 
7 7 0 0 0 5 1 641 
5 10 0 0 0 7 1 641 
0 0 0 0 0 0 1 702 
0 0 0 0 0 0 1 643 
3 0 0 0 0 3 4 647 646 644 658 
1 0 0 0 0 4 2 652 645 
2 0 0 0 0 6 3 651 649 648 
6 0 0 0 0 10 2 649 648 
3 0 0 0 0 9 2 649 648 
8 0 0 0 0 9 1 650 
10 0 0 0 0 10 1 650 
10 0 0 0 0 9 1 653 
7 0 0 0 0 7 1 653 
2 0 0 0 0 8 1 653 
0 0 0 0 0 0 1 702 
0 0 0 0 0 0 2 655 658 
7 0 0 0 0 2 3 659 657 656 
9 0 0 0 0 9 2 664 660 
8 0 0 0 0 10 2 664 660 
4 0 0 0 0 9 2 664 660 
5 0 0 0 0 5 2 664 661 
9 0 0 0 0 8 1 661 
3 0 0 0 0 10 2 663 662 
7 0 0 0 0 10 2 665 687 
3 0 0 0 0 6 1 665 
9 0 0 0 0 6 1 665 
0 0 0 0 0 0 1 702 
0 0 0 0 0 0 1 667 
5 0 0 1 0 0 3 671 670 668 
3 0 0 8 0 0 3 676 674 669 
7 0 0 10 0 0 2 675 672 
2 0 0 8 0 0 3 674 672 683 
7 0 0 10 0 0 2 674 672 
3 0 0 5 0 0 1 673 
2 0 0 8 0 0 1 677 
2 0 0 7 0 0 1 677 
3 0 0 10 0 0 1 677 
7 0 0 8 0 0 1 677 
0 0 0 0 0 0 1 702 
0 0 0 0 0 0 2 679 682 
5 0 0 0 1 0 3 688 684 680 
7 0 0 0 10 0 1 681 
1 0 0 0 5 0 1 683 
2 0 0 0 9 0 1 683 
3 0 0 0 7 0 4 687 686 685 693 
9 0 0 0 8 0 1 685 
9 0 0 0 8 0 1 689 
6 0 0 0 10 0 1 689 
1 0 0 0 7 0 1 689 
7 0 0 0 10 0 1 689 
0 0 0 0 0 0 1 702 
0 0 0 0 0 0 3 691 695 700 
5 0 0 0 4 0 2 697 692 
6 0 0 0 3 0 3 699 698 693 
6 0 0 0 10 0 1 694 
7 0 0 0 8 0 1 696 
4 0 0 0 10 0 1 697 
8 0 0 0 5 0 1 701 
10 0 0 0 7 0 1 701 
6 0 0 0 10 0 1 701 
2 0 0 0 8 0 1 701 
5 0 0 0 10 0 1 701 
0 0 0 0 0 0 1 702 
0 0 0 0 0 0 0 
